     60      4     46    376     17
     42     30     36     30
     26     28      1     45     13     57     20     30     10     15     37     13     56     40      9     19      0     24     53     10     25     43     17     55     55     52     51     55     31     48     29     58     46     11     29      9     32     55     39     42     35     49      7     16     38     54     48     59     54     52     15     47     40     32      1     56     20     40     41      9     33     45     28      7      3     30     48     41     32     34     46     11     22     35     50      7     41      6     31     39     24     29     13     30     42      0     25     41     18     59     16     39     31     10     30     44      8     35     38     20      2      0     30     28     46     56      4     59     11     45      6     36     17     58      5      2      4      6     30     25     35      4      9     28     14     49      1     26     30     10     19     20     22      9      7     52     54     23     17     22      7     56     19     49     50     17      2      3     40     36     49     23      0     10      4     41     13      3     24     12      6     38     51     44      2      7     43     38     20     43     25     50     14     32     24     48     53      3     42     57     56     45     13     32     51     43     40     37     14     43      4     29     47     41     18     36     12     27     17     33     22     27     37     29     46     53     24     31      1     24     50      8     48     43      3     49     14     27     51      8     52     37     20     10     16      8     18     23      0     22     43      8      6     15     18     34     29      2     12     21      5     31     23      4     35     50     25     53     16      7     50      8     48     25     59     38     41     21      2     17     13     19     21      7     52     10     29     37      0      2      8     23     53     26     59      3     14     48     42     10     38      1      0     20     12      8     14     35     51     23     45      3     29     50     36      5     26     46     30      8      7     48     36     35     55     59     46     31      9     56     47     57     14     10     31     38     54     29      7     41     26     20     14      3     33     58     44     45     51     24      3     41     12     10     55     52     46     35     36     16     51     45     33     48     43     36     50     21     15      9     46     51     56     38      3      4      5     50     21     17     38     28     57     48     51     32     55     32     19     29     16      0     52      4     33     18     11     26      2     17     52     20     56     38     35     32     51     27     12     44     37     55     34     28     52     35     39     55     49     27     29      5     24     41     57      2     20     39     56     18      7     20     18     43     49     14      7     59      4     39
    114    113    115     40     60     68     77     80     24     99     14    106    109     17     19    -26     13    -10    125     61    113    116    -26     11      9     29    -14     26     68     42     86     73     90     82    -10     49    105    -30     49     53      3     87     84     47     55     17     28     18     22     67     74     -7      3     56    -21     51     82     11     69      2    118     -3     42     10     39    102     82     43     14     10
      8     14     14     15     13	    158     80     34     38      6      0      0     24      0      0     84      0      0      0      0      0      0      0      0      0      0      0     74      0      0     91      0      0      0      0      0    118      0      0    102      0     68    122     20     60      0     -1      0      0      0      0      0      0      0      0      0      0      0      0      0      0      0      0      0     10      0      0     22      0      0
      8     12     10     15     10	    322    139     21     31      5      0      0      0    228     60      0      0    -13      0      0      0      0    -50    -57    135      0      0     82      0    218      0    104     63      0      0      0      0      0      0      0      0      0      0      0      0      0      0      0      0    -59      0     90      0      0      0      0      0      0     25      0     54      0      0      0      0    246      6      0    141      0
     11     10     10     10     14	    162     91     41     45      4     24      0      0      0      0      0     87    -10      0      0      0      0     11     22     87      0      0     93     -8     82      0      0      0      0     70      0     33      0      0      0    114      0      0      0      0      0      0     28     -1      0      0      0      0      0      0      0      0      0      0    -16      0      0     84    104      0      0      0      0      0      0
     11     11     12     14     10	    462    241     19     30      4      0    228      0      0      0      0      0      0      9      0    144      0      0      0      0      0      0      0      0      0      0      0      0      0     51    -20      0      0    107      0      0      0    217      0      0     26    216     60      0      0      0      0      0      0      0      0      0      0      0      7      0     24    108      0      0      0    143      0      0      0
      8     14     14     10     13	    190    107     20     43     10      0     60      0      0      0      0      0      0     27      0      0    -16      0      0      0     16     65      0      0      0    105    -21      0      0    146      0    141      0     46      0      0     31      0      0     35      0      0      0      0      0      0    -14    130      0     27      0      0     11      0      0      0     26      0      0      0      0      0      0      0      0
      8     12     12     13     11	    178     95     34     37      6     84      0      0      0      0      0    128      0     -3      0      0      0      0     73      8      0      0     25      0      0      0      0      0      0      0      0      0      0      0      0      0      0      0      0      0      0      0      0      0      0     15      0      0      0      0      0      0     96      0      0     76      0      0      0      0     81      0      0      0      0
      7     10     14     12     10	    479    275     27     45      7      0      0     87      0      0    128      0      0      0      0      0      0      0      0      0     48    228      0      0      0      0      0     93      0     84      0      0      0      0      0      0    111      0     -8      0      0    200      0      0      0      0    -14      0      0      0      0      0      0      0      0      0      0      0      0     93      0      0      0      0      0
      8     11     10     11     11	    229    131     12     23      7      0    -13    -10      0      0      0      0      0      0      0      0      0      0      0      0      0      0      0      0      0      0      0      0      0      0      0      0      0      0      0     10     85      0     65      0      0      0      0      0      0      0      6      0      0      0      0      0      0      0      0     91      0      0      0      0      0      0      0      0      0
      8     12     13     10     13	    144     84      9     45      3      0      0      0      9     27     -3      0      0      0      0      0      0      0      0      0      0      0      0      0      0      0      0      0      0      0      0      0      0      0      0      0      0      0      0      0      0    102    -24      0      0      0     36      0      0      0    -11      0    -15      0      0      0     -1      0      0      0      0      0      0      0      0
      9     13     13     11     15	    132     71     29     30      2      0      0      0      0      0      0      0      0      0      0      0      0      0      0      0     56      0      0      0      0      0      0      0      0      0      0      0      0      0     99      0      0      0     71      0      8      0      6      0      0      0      0      0    -26      0      0      0      0      0      0      0      0      0      0      0      0      0      0      0      0
      8     11     10     14     13	    202    107     22     40      7      0      0      0    144      0      0      0      0      0      0      0      0      0     44     18      0      0      0      0      0     39    127      0      0    113      0      0      0      0      0      0      0      0     -9      0      0    -25      0      0      0      0      0      0      0    -28      0      0    -30      0      0      0      0      0      0      0      0      0     37     74      0
      8     11     12     14     11	    274    147     32     39      3      0      0      0      0    -16      0      0      0      0      0      0      0     54      0      0     66     10      0      0      0     64      0      0      0      0      0    -16      0      0      0      0      0      0    127      0      0      0      0      0      0      0      0      0      0      0    153      0    187      0    213      0      0      0     25      0      0      0      0      0      0
      7     13     13     13     12	    465    299     38     38     10      0    -50     11      0      0      0      0      0      0      0      0     54      0    214    215      0    264      0      0      0      0      0      0     -3      0      0    348      0      0      0      0      0      0      0      0      0     98      0      0      0      0      8      0    -71      0    178      0      0      0      0      0      0      0    192      0      0      0      0    -24      0
      7     15     11     12     11	    434    227     26     38      6      0    -57     22      0      0     73      0      0      0      0     44      0    214      0      0      0      0      0      0      0      0      0     21      0     98      0      0      0    223      0      0      0      0      0      0      0      0      0      0      0      0      0      0      0      0      0      0      0      0    231      0      0    120      0      0      0      0      0      0      0
     10     12     12     13     11	    275    140     22     34      4      0    135     87      0      0      8      0      0      0      0     18      0    215      0      0      0      0      0      0      0      0      0      0      0      0      0      0      0      0      0      0    125      0      0    141      0      0      0      0    135      0      0      0      0      0    172      0      0      0      0      0      0      0      0      0     99      0      0      0      0
     10     12     10     14     11	    126     81     39     42      8      0      0      0      0     16      0     48      0      0     56      0     66      0      0      0      0      0      0      0      0      0     24      0      0      0      0      0      0      0      0      0      0     10      0      0      0      0      0      0      0     96     83      0     -3      0      0     91      0      0     36      0      0      0      0      0      0      0      0      0      0
     11     15     11     11     12	    376    169     26     28      5      0      0      0      0     65      0    228      0      0      0      0     10    264      0      0      0      0      0     36      0      0      0      0    160      0      3    -36      0      0      0      0    184      0      0      0      0      0      0      0      0      0      0      0     98      0      0      0      0      0      0      0    -17      0      0      0      0      0      0      0      0
      8     14     11     13     10	    170     64      9     39      7     74     82     93      0      0     25      0      0      0      0      0      0      0      0      0      0      0      0      0      0      0      0      0      0      0     38      0      0     98     29      0     52    134      0      0      0      0      0      0      0      0    112     -6      0      0      0      0      0      0     54      0      0     34      0      0      0      0      0      0      0
     11     14     15     10     11	    126     81     26     27      2      0      0     -8      0      0      0      0      0      0      0      0      0      0      0      0      0     36      0      0      0      0      0      0      0     19      0      1     67      0     70      0      0      0      0      0      0      0     19     12      0     81    -23      0      0      0      0      0      0      0      0    -10      0      0      0      0      0      0      0      0      0
     12     10     12     14     10	    402     96     43     46      6      0    218     82      0      0      0      0      0      0      0      0      0      0      0      0      0      0      0      0      0      0      0      0      0      0      0      0      0      0      0      0      0      0    -24      0     61      0      0      0      0      0      0      0      0      0      0      0      0    167      0      0      0      0      0      0      0      0      0      0    130
      8     11     13     13     14	    176     90     20     22      6     91      0      0      0    105      0      0      0      0      0     39     64      0      0      0      0      0      0      0      0      0    108      0      0      0      0      0     94      0      0      0      0      0      0      0     97      0      0      0      0      0      0      0      0     40      0     28     12      0      0      0      0      0    -24      0      0      0      0      0      0
      6     13     15     15     11	    339     57      6     30      6      0    104      0      0    -21      0      0      0      0      0    127      0      0      0      0     24      0      0      0      0    108      0      0      0      0      0      0     26      0      0      1      0      0      0      0      0      0      0      0      0      0      0      0      0      0      0      0      0      0      0      0      0      0      0      0      0    -49    -14      0      0
      9     15     15     11     10	    152     60      9     14      9      0     63      0      0      0      0     93      0      0      0      0      0      0     21      0      0      0      0      0      0      0      0      0      0      0      0    -12     24      0     87      0      0      0      0      0      0      0    115      0      0     15      0      0     25      0      0      0      0      0      0      0      0      0      0      0      0      0      0      0      0
     11     12     10     10     11	    253     60     28     39      6      0      0      0      0      0      0      0      0      0      0      0      0     -3      0      0      0    160      0      0      0      0      0      0      0      0    -22      0    -43      0      0      0      0      0      0      0      0      0      0      0      0      0      0      0     70     22    136      0      0      0      0    -28      0      0      0    190      0    -19      0    164      0
     12     12     14     12     14	    332    124     16     28      7      0      0     70     51    146      0     84      0      0      0    113      0      0     98      0      0      0      0     19      0      0      0      0      0      0    -11      0    148    -56      0      0      0      0      0      0     48      0      0      0      0    203      0      0      0      0      0    121      0      0      0      0      0      0    136     30      0    -18      0      0     87
      8     15     10     11     15	    120     64     24     25      4      0      0      0    -20      0      0      0      0      0      0      0      0      0      0      0      0      3     38      0      0      0      0      0    -22    -11      0      0      0      0     26      0      0      0      0      0      0      0      0      0      0     14      0      0      0      0     -5      0      0      0      0     -5      0      0    -20      0      0      0      0      0      0
     12     14     10     11     12	    499    308     40     45      7    118      0     33      0    141      0      0      0      0      0      0    -16    348      0      0      0    -36      0      1      0      0      0    -12      0      0      0      0      0      0      0    158      0      0      0      0      0      0      0      0      0      0      0      0    314      0      0      0      0    106    152      0      0     68      0      0      0    135      0      0      0
      8     11     10     11     13	    329    157     20     42      1      0      0      0      0      0      0      0      0      0      0      0      0      0      0      0      0      0      0     67      0     94     26     24    -43    148      0      0      0      0      0      0      0      0      0      0      0      0      0    173      0      0      0      0      0      0      0      0      0      0      0    -20      0      0      0      0    185      0      0      0      0
     12     10     12     12     12	    403     81     43     45      5      0      0      0    107     46      0      0      0      0      0      0      0      0    223      0      0      0     98      0      0      0      0      0      0    -56      0      0      0      0      0      0      0      0     51    119      0      0      0      0    -32      0      0      0     64      0     78      0      0      0      0      0      0      0    279      0      0      0      0      0      0
      8     15     11     11     14	    459    138     33     44      4    102      0      0      0      0      0      0      0      0     99      0      0      0      0      0      0      0     29     70      0      0      0     87      0      0     26      0      0      0      0      0      0      0      0      0      0    198      0      0      0      0      0      0      0      0      0      0    169      0      0      0     40     -2      0      0      0     51      0    130      0
     11     14     11     11     10	    246     68     23     30      4      0      0    114      0      0      0      0     10      0      0      0      0      0      0      0      0      0      0      0      0      0      1      0      0      0      0    158      0      0      0      0    108      0      0      0      0      0      0      0    162      0      0      0      0      0     92      0      0      0      0      0     16      0      0      0      0      0      0    151    157
     12     14     12     15     12	    293    170     25     25      1     68      0      0      0     31      0    111     85      0      0      0      0      0      0    125      0    184     52      0      0      0      0      0      0      0      0      0      0      0      0    108      0      0      0      0      0      0    -22      0      0      0      0      0    145     14      0      0     -8      0      0      0      0      0      0      0      0      0      0      0      0
      6     11     11     15     14	    463    204     18     31      6    122      0      0    217      0      0      0      0      0      0      0      0      0      0      0     10      0    134      0      0      0      0      0      0      0      0      0      0      0      0      0      0      0    125      0      0      0      0      0      0      0      0      0      0      0      0      0      0      0    151      0     70      0      0      0      0      0      0      0      0
      8     12     15     15     11	    172     83     34     41      8     20      0      0      0      0      0     -8     65      0     71     -9    127      0      0      0      0      0      0      0    -24      0      0      0      0      0      0      0      0     51      0      0      0    125      0      0      0      0     81      0      0      0    101      0      0      0    -22      0     42      0      0     16      0      0      0      0      0      0      0      0      0
     12     14     13     13     15	    292    185     40     43     10     60      0      0      0     35      0      0      0      0      0      0      0      0      0    141      0      0      0      0      0      0      0      0      0      0      0      0      0    119      0      0      0      0      0      0      0      0      0      0      0      0      0      0      0      0      0      0      0     85    -42      0      0    185      0      0      0      0      0      0      0
     10     11     15     14     10	    138     93     43     44      8      0      0      0     26      0      0      0      0      0      8      0      0      0      0      0      0      0      0      0     61     97      0      0      0     48      0      0      0      0      0      0      0      0      0      0      0      0      0    -19      0      0      0      0      0      0      0      0    -10      0      0      0      0      0      0      0     10      0     82      0     -3
      9     13     10     11     12	    276    155     14     35      5     -1      0      0    216      0      0    200      0    102      0    -25      0     98      0      0      0      0      0      0      0      0      0      0      0      0      0      0      0      0    198      0      0      0      0      0      0      0      0      0    132      0     23      0      0      0      0    -22      0      0      0     73      0      0      0    219      0      0      0      0      0
      8     12     12     10     12	    233     51     46     46      5      0      0     28     60      0      0      0      0    -24      6      0      0      0      0      0      0      0      0     19      0      0      0    115      0      0      0      0      0      0      0      0    -22      0     81      0      0      0      0      0      0      0      0      0      0      0      0      0      0     11      0      0      0      0      0      0    141      0      0      0     87
     11     13     14     13     12	    334     83     46     46      3      0      0     -1      0      0      0      0      0      0      0      0      0      0      0      0      0      0      0     12      0      0      0      0      0      0      0      0    173      0      0      0      0      0      0      0    -19      0      0      0      0      0      0     17      0    -31      0      0     88    218      0     65      0      0      0    225      0      0      0      0      0
     11     12     12     13     11	    490    154     19     28      3      0    -59      0      0      0      0      0      0      0      0      0      0      0      0    135      0      0      0      0      0      0      0      0      0      0      0      0      0    -32      0    162      0      0      0      0      0    132      0      0      0      0     13      0    108      0      0      0     87      0      0    106      0      0    128      0      0      0     43    152      0
     10     14     14     11     11	    423     54     10     40      8      0      0      0      0      0     15      0      0      0      0      0      0      0      0      0     96      0      0     81      0      0      0     15      0    203     14      0      0      0      0      0      0      0      0      0      0      0      0      0      0      0      0      0      0      0      0      0      0    146    235      0      0      0      0      0      0      0      0      0      0
     11     12     11     14     12	    175     83     42     46      3      0     90      0      0    -14      0    -14      6     36      0      0      0      8      0      0     83      0    112    -23      0      0      0      0      0      0      0      0      0      0      0      0      0      0    101      0      0     23      0      0     13      0      0      0      0      0      0      0      0      0      0      0      0      0      0      0     15      0      0      0      0
      8     14     13     15     11	    172     56     27     29      5      0      0      0      0    130      0      0      0      0      0      0      0      0      0      0      0      0     -6      0      0      0      0      0      0      0      0      0      0      0      0      0      0      0      0      0      0      0      0     17      0      0      0      0      0      0      0      0      0      1      0      0      0      0      0      0      0    130      0      0      0
      8     11     10     12     10	    419    207     34     44      9      0      0      0      0      0      0      0      0      0    -26      0      0    -71      0      0     -3     98      0      0      0      0      0     25     70      0      0    314      0     64      0      0    145      0      0      0      0      0      0      0    108      0      0      0      0     39      0    -73      0      0      0      0      0      0      0      0      0      0      0      0      0
     11     13     10     14     14	    155     50     30     41      1      0      0      0      0     27      0      0      0      0      0    -28      0      0      0      0      0      0      0      0      0     40      0      0     22      0      0      0      0      0      0      0     14      0      0      0      0      0      0    -31      0      0      0      0     39      0      0     -3    -24     38      0      0     -3      0      0      0      0      0      0      0      0
      8     11     15     12     11	    313    142     36     46      6      0      0      0      0      0      0      0      0    -11      0      0    153    178      0    172      0      0      0      0      0      0      0      0    136      0     -5      0      0     78      0     92      0      0    -22      0      0      0      0      0      0      0      0      0      0      0      0      0      0      0      0      0      0      0      0      0      0      0    164     23      0
      6     14     10     13     11	    431    171     11     39      9      0      0      0      0      0      0      0      0      0      0      0      0      0      0      0     91      0      0      0      0     28      0      0      0    121      0      0      0      0      0      0      0      0      0      0      0    -22      0      0      0      0      0      0    -73     -3      0      0      0      0      0      0      0      0      0      0      0      0      0      0      0
      9     13     13     15     10	    264     85     37     41      2      0      0      0      0     11     96      0      0    -15      0    -30    187      0      0      0      0      0      0      0      0     12      0      0      0      0      0      0      0      0    169      0     -8      0     42      0    -10      0      0     88     87      0      0      0      0    -24      0      0      0      0      0      0      0      0      0      0      0      0      0      9      0
     10     12     11     11     13	    491    202     37     41      4      0     25      0      0      0      0      0      0      0      0      0      0      0      0      0      0      0      0      0    167      0      0      0      0      0      0    106      0      0      0      0      0      0      0     85      0      0     11    218      0    146      0      1      0     38      0      0      0      0      0      0      0      0      0    203      0      0    -11      0      0
     12     14     11     15     10	    295     97     24     36      6      0      0    -16      7      0      0      0      0      0      0      0    213      0    231      0     36      0     54      0      0      0      0      0      0      0      0    152      0      0      0      0      0    151      0    -42      0      0      0      0      0    235      0      0      0      0      0      0      0      0      0      0      0      0      0      0    158      0      0      0      0
      6     14     13     10     15	    150     97     37     43      8      0     54      0      0      0     76      0     91      0      0      0      0      0      0      0      0      0      0    -10      0      0      0      0    -28      0     -5      0    -20      0      0      0      0      0     16      0      0     73      0     65    106      0      0      0      0      0      0      0      0      0      0      0      0      0      0      0      0      0      0      0      0
      7     11     12     11     13	    112     76     36     46     10      0      0      0     24     26      0      0      0     -1      0      0      0      0      0      0      0    -17      0      0      0      0      0      0      0      0      0      0      0      0     40     16      0     70      0      0      0      0      0      0      0      0      0      0      0     -3      0      0      0      0      0      0      0      0      0      0     12      0      0     69      0
      6     11     12     15     13	    264     98     39     46      5      0      0     84    108      0      0      0      0      0      0      0      0      0    120      0      0      0     34      0      0      0      0      0      0      0      0     68      0      0     -2      0      0      0      0    185      0      0      0      0      0      0      0      0      0      0      0      0      0      0      0      0      0      0      0      0      0      0      0      0      0
      6     13     11     12     11	    350    187     27     45      8      0      0    104      0      0      0      0      0      0      0      0     25    192      0      0      0      0      0      0      0    -24      0      0      0    136    -20      0      0    279      0      0      0      0      0      0      0      0      0      0    128      0      0      0      0      0      0      0      0      0      0      0      0      0      0    -54    124    245      0      0      0
     12     11     10     11     13	    360    131     27     38     10     10      0      0      0      0      0     93      0      0      0      0      0      0      0      0      0      0      0      0      0      0      0      0    190     30      0      0      0      0      0      0      0      0      0      0      0    219      0    225      0      0      0      0      0      0      0      0      0    203      0      0      0      0    -54      0    -46      0      0      0      0
      7     10     11     13     12	    372    245     31     37      5      0    246      0      0      0     81      0      0      0      0      0      0      0      0     99      0      0      0      0      0      0      0      0      0      0      0      0    185      0      0      0      0      0      0      0     10      0    141      0      0      0     15      0      0      0      0      0      0      0    158      0     12      0    124    -46      0      0      0      0      0
      8     11     12     13     10	    383    163     24     26      6      0      6      0    143      0      0      0      0      0      0      0      0      0      0      0      0      0      0      0      0      0    -49      0    -19    -18      0    135      0      0     51      0      0      0      0      0      0      0      0      0      0      0      0    130      0      0      0      0      0      0      0      0      0      0    245      0      0      0      0      0      0
      7     10     12     13     14	    356    131     39     39      7     22      0      0      0      0      0      0      0      0      0     37      0      0      0      0      0      0      0      0      0      0    -14      0      0      0      0      0      0      0      0      0      0      0      0      0     82      0      0      0     43      0      0      0      0      0    164      0      0    -11      0      0      0      0      0      0      0      0      0     18      0
      8     15     10     10     15	    216     75     37     43      8      0    141      0      0      0      0      0      0      0      0     74      0    -24      0      0      0      0      0      0      0      0      0      0    164      0      0      0      0      0    130    151      0      0      0      0      0      0      0      0    152      0      0      0      0      0     23      0      9      0      0      0     69      0      0      0      0      0     18      0     70
     10     10     15     10     13	    304    145     37     45      5      0      0      0      0      0      0      0      0      0      0      0      0      0      0      0      0      0      0      0    130      0      0      0      0     87      0      0      0      0      0    157      0      0      0      0     -3      0     87      0      0      0      0      0      0      0      0      0      0      0      0      0      0      0      0      0      0      0      0     70      0